; benchmark generated from python API
(set-info :status unknown)
(declare-fun S_1 () Real)
(declare-fun A_1 () Real)
(declare-fun L_1 () Real)
(declare-fun L_0 () Real)
(declare-fun S_0 () Real)
(declare-fun A_0 () Real)
(declare-fun L_5 () Real)
(declare-fun A_5 () Real)
(declare-fun S_5 () Real)
(declare-fun C () Real)
(declare-fun S_4 () Real)
(declare-fun S_2 () Real)
(declare-fun S_3 () Real)
(declare-fun B () Real)
(declare-fun L_4 () Real)
(declare-fun A_4 () Real)
(declare-fun L_2 () Real)
(declare-fun A_2 () Real)
(declare-fun L_3 () Real)
(declare-fun A_3 () Real)
(assert
 (let (($x39 (>= L_0 0.0)))
 (let (($x749 (>= C 5.0)))
 (let (($x1891 (= (+ A_4 (* (- 1.0) L_4) (* (- 1.0) A_5) C L_5 B) 0.0)))
 (let ((?x263 (* (- 1.0) B)))
 (let ((?x1143 (* 3.0 C)))
 (let ((?x272 (* (- 1.0) L_1)))
 (let ((?x440 (* (- 1.0) A_4)))
 (let (($x505 (<= 0.0 (+ ?x440 L_4 ?x272 A_1 ?x1143 ?x263))))
 (let (($x96 (= L_5 L_4)))
 (let (($x56 (= L_1 L_0)))
 (let (($x25741 (or $x56 (<= (+ S_5 L_1 (* (- 1.0) A_1) (* (- 4.0) C) B) 0.0))))
 (let ((?x340 (* (- 1.0) L_5)))
 (let ((?x1258 (* (- 5.0) C)))
 (let ((?x1336 (* (- 1.0) A_0)))
 (let (($x12710 (<= 0.0 (+ L_1 (* (- 1.0) A_1) A_5 (* (- 4.0) C) ?x340 ?x263))))
 (let (($x13968 (or (= (+ ?x272 A_1 (* (- 1.0) A_5) (* 4.0 C) L_5 B) 0.0) (not $x12710))))
 (let (($x12481 (<= 0.0 (+ ?x440 L_4 A_5 (* (- 1.0) C) ?x340 ?x263))))
 (let ((?x289 (* (- 1.0) L_2)))
 (let ((?x898 (+ L_1 ?x289)))
 (let (($x12176 (<= 0.0 ?x898)))
 (let (($x12177 (not $x12176)))
 (let (($x24242 (or $x96 (<= (+ ?x272 A_2 (* (- 1.0) A_5) ?x1143 L_5) 0.0) $x12177 $x12481)))
 (let (($x24246 (or $x96 (<= (+ (* (- 1.0) A_5) (* 4.0 C) S_1 L_5 B) 0.0) $x12481)))
 (let (($x12088 (not (<= 0.0 (+ L_2 (* (- 1.0) L_3))))))
 (let (($x25910 (or $x96 (<= (+ ?x289 (* (- 1.0) A_5) A_3 (* 2.0 C) L_5) 0.0) $x12088)))
 (let (($x4483 (<= (+ (* (- 1.0) A_5) (* 5.0 C) S_0 L_5 B) 0.0)))
 (let (($x2778 (<= (+ ?x272 A_1 (* (- 1.0) S_4) (* 2.0 C)) 0.0)))
 (let (($x4520 (<= (+ A_1 (* (- 1.0) A_5) (* 4.0 C) L_5 (* (- 1.0) L_0)) 0.0)))
 (let (($x1671 (not $x56)))
 (let (($x24268 (or $x96 (<= (+ (* (- 1.0) A_5) ?x1143 S_2 L_5 B) 0.0) $x12481)))
 (let ((?x1184 (* 4.0 C)))
 (let ((?x443 (* (- 1.0) A_5)))
 (let ((?x1318 (+ ?x272 A_1 ?x443 ?x1184 L_5)))
 (let (($x12256 (<= 0.0 ?x1318)))
 (let (($x16976 (or $x56 (<= (+ L_1 (* (- 1.0) A_1) S_4 (* (- 3.0) C) B) 0.0))))
 (let (($x16196 (or (<= (+ ?x272 A_1 C (* (- 1.0) S_3)) 0.0) (<= (+ (* 2.0 C) (* (- 1.0) S_3) S_0) 0.0))))
 (let (($x24677 (or $x56 (<= (+ L_1 (* (- 1.0) A_1) (* (- 2.0) C) S_3 B) 0.0))))
 (let (($x24209 (or $x56 (<= 0.0 (+ ?x272 A_1 (* (- 1.0) A_3) (* 2.0 C) L_3)))))
 (let (($x6222 (or (<= (+ ?x272 A_1 (* (- 1.0) S_2)) 0.0) (<= (+ C (* (- 1.0) S_2) S_0) 0.0))))
 (let ((?x306 (* (- 1.0) L_3)))
 (let ((?x1134 (* (- 2.0) C)))
 (let ((?x432 (* (- 1.0) A_1)))
 (let (($x12403 (<= 0.0 (+ L_1 ?x432 A_3 ?x1134 ?x306 ?x263))))
 (let (($x15211 (or (= (+ ?x272 A_1 (* (- 1.0) A_3) (* 2.0 C) L_3 B) 0.0) (not $x12403))))
 (let (($x76 (= L_3 L_2)))
 (let (($x25058 (or $x76 (<= (+ ?x272 A_2 (* (- 1.0) A_3) C L_3) 0.0) $x12177)))
 (let (($x12420 (or $x76 (<= (+ (* (- 1.0) A_3) ?x1143 S_0 L_3 B) 0.0) $x12403)))
 (let (($x1691 (not $x96)))
 (let (($x3644 (<= (+ A_1 (* (- 1.0) A_3) (* 2.0 C) L_3 (* (- 1.0) L_0)) 0.0)))
 (let (($x12368 (or $x76 (<= (+ (* (- 1.0) A_3) (* 2.0 C) S_1 L_3 B) 0.0))))
 (let (($x25809 (or (= (+ ?x272 A_1 (* (- 1.0) A_2) L_2 C B) 0.0) (not (<= 0.0 (+ L_1 ?x432 A_2 ?x289 (* (- 1.0) C) ?x263))))))
 (let (($x86 (= L_4 L_3)))
 (let (($x12234 (<= 0.0 (+ ?x440 L_4 A_2 ?x289 (* 2.0 C) ?x263))))
 (let (($x2201 (= (+ A_2 ?x289 ?x443 ?x1143 L_5) 0.0)))
 (let (($x66 (= L_2 L_1)))
 (let (($x16016 (or $x66 (<= (+ (* (- 1.0) A_2) L_2 (* (- 1.0) C) S_3 B) 0.0))))
 (let (($x14017 (or (<= (+ S_5 (* (- 1.0) A_2) L_2 (* (- 3.0) C) B) 0.0) $x12176)))
 (let (($x12228 (<= 0.0 (+ L_1 ?x432 A_2 ?x289 (* (- 1.0) C) ?x263))))
 (let (($x15656 (or $x66 (<= (+ (* (- 1.0) A_2) L_2 (* 2.0 C) S_0 B) 0.0) $x12228)))
 (let (($x25941 (or $x96 (not (= (+ A_2 ?x289 (* (- 1.0) A_3) C L_3) 0.0)) $x2201 $x12176)))
 (let (($x25075 (or $x66 $x1671 (<= (+ A_1 (* (- 1.0) A_2) L_2 C (* (- 1.0) L_0)) 0.0))))
 (let (($x13759 (or $x56 $x76 (= (+ ?x272 A_1 (* (- 1.0) A_3) (* 2.0 C) L_3) 0.0))))
 (let (($x131 (>= S_2 S_1)))
 (let (($x144 (>= A_3 A_2)))
 (let (($x128 (>= S_1 S_0)))
 (let (($x134 (>= S_3 S_2)))
 (let (($x137 (>= S_4 S_3)))
 (let (($x142 (>= A_1 A_0)))
 (let (($x145 (>= A_4 A_3)))
 (and (<= (+ A_4 (* (- 1.0) L_4)) S_5) (<= (+ A_1 ?x272) S_4) (not (<= (+ A_2 ?x289) S_4)) $x145 $x142 $x137 $x134 $x128 $x144 $x131 (or (not (<= 0.0 (+ ?x272 L_0))) $x56) (<= (+ ?x272 A_1 (* (- 1.0) S_2) ?x263) 0.0) (or $x56 (<= (+ L_1 ?x432 S_1 B) 0.0)) (<= (+ ?x272 A_1 ?x1336 (* (- 1.0) C) ?x263 L_0) 0.0) (or $x56 (<= 0.0 (+ A_1 (* (- 1.0) A_2) C)) (not $x66)) (or $x56 $x66 (= (+ ?x272 A_1 (* (- 1.0) A_2) L_2 C) 0.0)) (<= (+ ?x272 A_1 C (* (- 1.0) S_3) ?x263) 0.0) (or $x56 (<= (+ L_1 ?x432 (* (- 1.0) C) S_2 B) 0.0)) (<= (+ ?x272 A_1 (* (- 1.0) S_4) (* 2.0 C) ?x263) 0.0) $x13759 (<= (+ ?x272 A_1 ?x1134 (* (- 1.0) S_0) ?x263) 0.0) (or $x56 (<= (+ L_1 ?x432 C S_0 B) 0.0)) (<= (+ ?x272 A_1 (* (- 1.0) C) (* (- 1.0) S_1) ?x263) 0.0) (or $x66 $x12177) (<= (+ A_2 ?x289 (* (- 1.0) S_3) ?x263) 0.0) (or $x66 (<= (+ (* (- 1.0) A_2) L_2 C S_1 B) 0.0)) $x25075 (or $x66 (<= (+ (* (- 1.0) A_2) L_2 S_2 B) 0.0)) (<= (+ (* (- 1.0) S_4) A_2 ?x289 C ?x263) 0.0) (<= (+ A_2 ?x289 (* (- 1.0) C) (* (- 1.0) S_2) ?x263) 0.0) (or $x76 (= (+ A_2 ?x289 (* (- 1.0) A_3) C L_3) 0.0) $x12176) $x25941 (<= (+ A_2 ?x289 (* (- 3.0) C) (* (- 1.0) S_0) ?x263) 0.0) (<= (+ A_2 ?x289 ?x1336 ?x1134 ?x263 L_0) 0.0) (<= (+ A_2 ?x289 ?x1134 (* (- 1.0) S_1) ?x263) 0.0) $x15656 $x14017 (or $x66 (not $x76) (<= 0.0 (+ A_2 (* (- 1.0) A_3) C))) $x16016 (or $x66 (<= (+ S_4 (* (- 1.0) A_2) L_2 ?x1134 B) 0.0)) (or $x96 $x1891 (not $x12234)) (or $x96 $x2201 $x12176 $x12234) $x86 (or $x1691 (<= 0.0 (+ A_4 ?x443 C B))) $x25809 (or $x1691 $x12176 (<= 0.0 (+ L_4 A_2 ?x289 ?x443 ?x1143))) (<= (+ (* (- 1.0) S_4) A_3 ?x306 ?x263) 0.0) (or $x76 (<= (+ (* (- 1.0) A_3) C S_2 L_3 B) 0.0)) (or $x76 $x12088) $x12368 (or $x76 (<= (+ (* (- 1.0) A_3) S_3 L_3 B) 0.0)) (or $x76 $x96 (= (+ ?x443 A_3 (* 2.0 C) ?x306 L_5) 0.0)) (or $x76 $x1671 $x3644) (<= (+ A_3 (* (- 1.0) C) (* (- 1.0) S_3) ?x306 ?x263) 0.0) (<= (+ A_3 ?x1134 (* (- 1.0) S_2) ?x306 ?x263) 0.0) (or $x76 $x1691 (<= 0.0 (+ L_4 ?x443 A_3 (* 2.0 C) ?x306))) (or $x76 (<= (+ S_5 (* (- 1.0) A_3) ?x1134 L_3 B) 0.0)) (<= (+ A_3 ?x1336 (* (- 3.0) C) ?x306 ?x263 L_0) 0.0) $x12420 (<= (+ A_3 (* (- 4.0) C) (* (- 1.0) S_0) ?x306 ?x263) 0.0) $x25058 (<= (+ A_3 (* (- 3.0) C) (* (- 1.0) S_1) ?x306 ?x263) 0.0) $x15211 (or $x96 (<= (+ S_5 ?x443 L_5 B) 0.0)) (or $x96 (not (<= 0.0 (+ L_4 ?x340)))) (<= (+ (* (- 1.0) S_4) C S_2) 0.0) (<= (+ ?x1336 ?x1134 S_2 L_0) 0.0) $x6222 $x24209 $x24677 (or $x96 (<= (+ ?x443 (* 2.0 C) S_3 L_5 B) 0.0) $x12481) (<= (+ ?x1134 S_1 (* (- 1.0) S_0)) 0.0) (<= (+ (* (- 3.0) C) S_2 (* (- 1.0) S_0)) 0.0) (<= (+ (* (- 1.0) S_4) (* 2.0 C) S_1) 0.0) (<= (+ C (* (- 1.0) S_3) S_1) 0.0) $x16196 (or $x2778 (<= (+ (* (- 1.0) S_4) ?x1143 S_0) 0.0)) (<= (+ L_1 ?x432 ?x1134 S_3) 0.0) (<= (+ ?x1336 (* (- 1.0) C) S_1 L_0) 0.0) (or $x96 $x505 (= ?x1318 0.0) (not $x12256)) $x16976 (or $x96 (<= (+ S_4 ?x443 C L_5 B) 0.0)) (or $x56 $x12256) (or $x1891 (not $x12481)) (<= (+ L_1 ?x432 (* (- 1.0) C) S_2) 0.0) $x24268 (or $x96 $x1671 $x4520 $x12481) (or $x96 $x2778 $x4483 $x12481) (or $x96 $x4483 $x12481 $x12710) $x25910 $x24246 $x24242 $x13968 (<= (+ (* (- 1.0) S_4) A_5 ?x1134 ?x340 ?x263) 0.0) (<= (+ A_5 (* (- 4.0) C) (* (- 1.0) S_2) ?x340 ?x263) 0.0) (<= (+ A_5 (* (- 3.0) C) (* (- 1.0) S_3) ?x340 ?x263) 0.0) (<= (+ A_5 (* (- 6.0) C) (* (- 1.0) S_0) ?x340 ?x263) 0.0) (<= (+ A_5 ?x1258 (* (- 1.0) S_1) ?x340 ?x263) 0.0) (<= (+ A_5 ?x1336 ?x1258 ?x340 ?x263 L_0) 0.0) (<= (+ S_5 (* (- 1.0) S_4) ?x1134) 0.0) (<= (+ S_5 ?x440 L_4 (* (- 1.0) C)) 0.0) $x25741 (or $x96 (not $x505) $x1891) (<= (+ (* (- 4.0) C) S_3 (* (- 1.0) S_0)) 0.0) (<= (+ ?x1336 (* (- 3.0) C) S_3 L_0) 0.0) (<= (+ (* (- 3.0) C) S_3 (* (- 1.0) S_1)) 0.0) (<= (+ ?x1134 S_2 (* (- 1.0) S_1)) 0.0) (<= (+ ?x1134 S_3 (* (- 1.0) S_2)) 0.0) (<= (+ S_5 (* (- 3.0) C) (* (- 1.0) S_3)) 0.0) (<= (+ S_5 ?x1336 ?x1258 L_0) 0.0) (<= (+ S_5 ?x1258 (* (- 1.0) S_1)) 0.0) (<= (+ S_5 (* (- 4.0) C) (* (- 1.0) S_2)) 0.0) (<= (+ S_5 (* (- 6.0) C) (* (- 1.0) S_0)) 0.0) (<= (+ S_5 L_1 ?x432 (* (- 4.0) C)) 0.0) (<= (+ S_4 ?x1134 (* (- 1.0) S_3)) 0.0) (<= (+ L_1 ?x432 S_4 (* (- 3.0) C)) 0.0) (<= (+ S_4 ?x1336 (* (- 4.0) C) L_0) 0.0) (<= (+ S_4 ?x1258 (* (- 1.0) S_0)) 0.0) (<= (+ S_4 (* (- 3.0) C) (* (- 1.0) S_2)) 0.0) (<= (+ S_4 (* (- 4.0) C) (* (- 1.0) S_1)) 0.0) $x749 $x39 (<= (+ S_5 ?x443 L_5) 0.0) (<= (+ ?x1336 S_0 L_0) 0.0) (<= (+ L_1 ?x432 S_1) 0.0))))))))))))))))))))))))))))))))))))))))))))))))))))))))))))))))))))))))
(check-sat)
